//Dat File

outFile="MPVSBPP_SET1_IT200_ITV2_NT1_TS3_WT1_VT1_REP5";
m=200;
o=42;
p=3;
numVTypes=1;

demand = [8, 9, 2, 2, 5, 10, 4, 9, 5, 3, 7, 1, 5, 7, 7, 9, 10, 11, 8, 2, 1, 1, 4, 6, 1, 7, 11, 10, 2, 4, 8, 4, 10, 2, 1, 3, 10, 4, 5, 10, 1, 3, 8, 8, 2, 3, 3, 10, 7, 5, 9, 9, 9, 3, 10, 7, 10, 5, 4, 3, 7, 4, 2, 3, 4, 6, 7, 8, 9, 6, 4, 5, 9, 7, 10, 2, 8, 9, 7, 2, 4, 10, 4, 2, 11, 3, 5, 9, 1, 8, 5, 9, 5, 4, 3, 7, 6, 3, 6, 10, 13, 19, 12, 17, 14, 18, 12, 19, 15, 12, 14, 12, 19, 15, 13, 14, 19, 12, 17, 17, 17, 17, 16, 14, 17, 16, 14, 16, 18, 18, 18, 16, 19, 14, 19, 18, 15, 13, 16, 13, 15, 18, 15, 18, 18, 15, 18, 17, 19, 14, 18, 19, 14, 12, 12, 14, 16, 17, 13, 14, 16, 19, 15, 15, 13, 19, 18, 13, 17, 13, 19, 16, 13, 18, 14, 15, 13, 18, 15, 14, 14, 19, 12, 18, 12, 15, 19, 13, 14, 15, 12, 12, 14, 19, 15, 17, 12, 19, 14, 14];
Depot_Cap = [30000, 30000, 30000];
Tarif = [10, 3, 7];
VeicVolume = [100];
VeicCost = [100];
VeicType = [1, 1, 1, 1, 1, 1, 1, 1, 1, 1, 1, 1, 1, 1, 1, 1, 1, 1, 1, 1, 1, 1, 1, 1, 1, 1, 1, 1, 1, 1, 1, 1, 1, 1, 1, 1, 1, 1, 1, 1, 1, 1];
Elect_vehicle = [[70, 100, 30], [70, 100, 30], [70, 100, 30], [70, 100, 30], [70, 100, 30], [70, 100, 30], [70, 100, 30], [70, 100, 30], [70, 100, 30], [70, 100, 30], [70, 100, 30], [70, 100, 30], [70, 100, 30], [70, 100, 30], [70, 100, 30], [70, 100, 30], [70, 100, 30], [70, 100, 30], [70, 100, 30], [70, 100, 30], [70, 100, 30], [70, 100, 30], [70, 100, 30], [70, 100, 30], [70, 100, 30], [70, 100, 30], [70, 100, 30], [70, 100, 30], [70, 100, 30], [70, 100, 30], [70, 100, 30], [70, 100, 30], [70, 100, 30], [70, 100, 30], [70, 100, 30], [70, 100, 30], [70, 100, 30], [70, 100, 30], [70, 100, 30], [70, 100, 30], [70, 100, 30], [70, 100, 30]];